c created by edge2cnf
p cnf 500 3100
-1 -2 0
-1 -3 0
-1 -4 0
-1 -5 0
-2 -3 0
-2 -4 0
-2 -5 0
-3 -4 0
-3 -5 0
-4 -5 0
1 2 3 4 5 0
-6 -7 0
-6 -8 0
-6 -9 0
-6 -10 0
-7 -8 0
-7 -9 0
-7 -10 0
-8 -9 0
-8 -10 0
-9 -10 0
6 7 8 9 10 0
-11 -12 0
-11 -13 0
-11 -14 0
-11 -15 0
-12 -13 0
-12 -14 0
-12 -15 0
-13 -14 0
-13 -15 0
-14 -15 0
11 12 13 14 15 0
-16 -17 0
-16 -18 0
-16 -19 0
-16 -20 0
-17 -18 0
-17 -19 0
-17 -20 0
-18 -19 0
-18 -20 0
-19 -20 0
16 17 18 19 20 0
-21 -22 0
-21 -23 0
-21 -24 0
-21 -25 0
-22 -23 0
-22 -24 0
-22 -25 0
-23 -24 0
-23 -25 0
-24 -25 0
21 22 23 24 25 0
-26 -27 0
-26 -28 0
-26 -29 0
-26 -30 0
-27 -28 0
-27 -29 0
-27 -30 0
-28 -29 0
-28 -30 0
-29 -30 0
26 27 28 29 30 0
-31 -32 0
-31 -33 0
-31 -34 0
-31 -35 0
-32 -33 0
-32 -34 0
-32 -35 0
-33 -34 0
-33 -35 0
-34 -35 0
31 32 33 34 35 0
-36 -37 0
-36 -38 0
-36 -39 0
-36 -40 0
-37 -38 0
-37 -39 0
-37 -40 0
-38 -39 0
-38 -40 0
-39 -40 0
36 37 38 39 40 0
-41 -42 0
-41 -43 0
-41 -44 0
-41 -45 0
-42 -43 0
-42 -44 0
-42 -45 0
-43 -44 0
-43 -45 0
-44 -45 0
41 42 43 44 45 0
-46 -47 0
-46 -48 0
-46 -49 0
-46 -50 0
-47 -48 0
-47 -49 0
-47 -50 0
-48 -49 0
-48 -50 0
-49 -50 0
46 47 48 49 50 0
-51 -52 0
-51 -53 0
-51 -54 0
-51 -55 0
-52 -53 0
-52 -54 0
-52 -55 0
-53 -54 0
-53 -55 0
-54 -55 0
51 52 53 54 55 0
-56 -57 0
-56 -58 0
-56 -59 0
-56 -60 0
-57 -58 0
-57 -59 0
-57 -60 0
-58 -59 0
-58 -60 0
-59 -60 0
56 57 58 59 60 0
-61 -62 0
-61 -63 0
-61 -64 0
-61 -65 0
-62 -63 0
-62 -64 0
-62 -65 0
-63 -64 0
-63 -65 0
-64 -65 0
61 62 63 64 65 0
-66 -67 0
-66 -68 0
-66 -69 0
-66 -70 0
-67 -68 0
-67 -69 0
-67 -70 0
-68 -69 0
-68 -70 0
-69 -70 0
66 67 68 69 70 0
-71 -72 0
-71 -73 0
-71 -74 0
-71 -75 0
-72 -73 0
-72 -74 0
-72 -75 0
-73 -74 0
-73 -75 0
-74 -75 0
71 72 73 74 75 0
-76 -77 0
-76 -78 0
-76 -79 0
-76 -80 0
-77 -78 0
-77 -79 0
-77 -80 0
-78 -79 0
-78 -80 0
-79 -80 0
76 77 78 79 80 0
-81 -82 0
-81 -83 0
-81 -84 0
-81 -85 0
-82 -83 0
-82 -84 0
-82 -85 0
-83 -84 0
-83 -85 0
-84 -85 0
81 82 83 84 85 0
-86 -87 0
-86 -88 0
-86 -89 0
-86 -90 0
-87 -88 0
-87 -89 0
-87 -90 0
-88 -89 0
-88 -90 0
-89 -90 0
86 87 88 89 90 0
-91 -92 0
-91 -93 0
-91 -94 0
-91 -95 0
-92 -93 0
-92 -94 0
-92 -95 0
-93 -94 0
-93 -95 0
-94 -95 0
91 92 93 94 95 0
-96 -97 0
-96 -98 0
-96 -99 0
-96 -100 0
-97 -98 0
-97 -99 0
-97 -100 0
-98 -99 0
-98 -100 0
-99 -100 0
96 97 98 99 100 0
-101 -102 0
-101 -103 0
-101 -104 0
-101 -105 0
-102 -103 0
-102 -104 0
-102 -105 0
-103 -104 0
-103 -105 0
-104 -105 0
101 102 103 104 105 0
-106 -107 0
-106 -108 0
-106 -109 0
-106 -110 0
-107 -108 0
-107 -109 0
-107 -110 0
-108 -109 0
-108 -110 0
-109 -110 0
106 107 108 109 110 0
-111 -112 0
-111 -113 0
-111 -114 0
-111 -115 0
-112 -113 0
-112 -114 0
-112 -115 0
-113 -114 0
-113 -115 0
-114 -115 0
111 112 113 114 115 0
-116 -117 0
-116 -118 0
-116 -119 0
-116 -120 0
-117 -118 0
-117 -119 0
-117 -120 0
-118 -119 0
-118 -120 0
-119 -120 0
116 117 118 119 120 0
-121 -122 0
-121 -123 0
-121 -124 0
-121 -125 0
-122 -123 0
-122 -124 0
-122 -125 0
-123 -124 0
-123 -125 0
-124 -125 0
121 122 123 124 125 0
-126 -127 0
-126 -128 0
-126 -129 0
-126 -130 0
-127 -128 0
-127 -129 0
-127 -130 0
-128 -129 0
-128 -130 0
-129 -130 0
126 127 128 129 130 0
-131 -132 0
-131 -133 0
-131 -134 0
-131 -135 0
-132 -133 0
-132 -134 0
-132 -135 0
-133 -134 0
-133 -135 0
-134 -135 0
131 132 133 134 135 0
-136 -137 0
-136 -138 0
-136 -139 0
-136 -140 0
-137 -138 0
-137 -139 0
-137 -140 0
-138 -139 0
-138 -140 0
-139 -140 0
136 137 138 139 140 0
-141 -142 0
-141 -143 0
-141 -144 0
-141 -145 0
-142 -143 0
-142 -144 0
-142 -145 0
-143 -144 0
-143 -145 0
-144 -145 0
141 142 143 144 145 0
-146 -147 0
-146 -148 0
-146 -149 0
-146 -150 0
-147 -148 0
-147 -149 0
-147 -150 0
-148 -149 0
-148 -150 0
-149 -150 0
146 147 148 149 150 0
-151 -152 0
-151 -153 0
-151 -154 0
-151 -155 0
-152 -153 0
-152 -154 0
-152 -155 0
-153 -154 0
-153 -155 0
-154 -155 0
151 152 153 154 155 0
-156 -157 0
-156 -158 0
-156 -159 0
-156 -160 0
-157 -158 0
-157 -159 0
-157 -160 0
-158 -159 0
-158 -160 0
-159 -160 0
156 157 158 159 160 0
-161 -162 0
-161 -163 0
-161 -164 0
-161 -165 0
-162 -163 0
-162 -164 0
-162 -165 0
-163 -164 0
-163 -165 0
-164 -165 0
161 162 163 164 165 0
-166 -167 0
-166 -168 0
-166 -169 0
-166 -170 0
-167 -168 0
-167 -169 0
-167 -170 0
-168 -169 0
-168 -170 0
-169 -170 0
166 167 168 169 170 0
-171 -172 0
-171 -173 0
-171 -174 0
-171 -175 0
-172 -173 0
-172 -174 0
-172 -175 0
-173 -174 0
-173 -175 0
-174 -175 0
171 172 173 174 175 0
-176 -177 0
-176 -178 0
-176 -179 0
-176 -180 0
-177 -178 0
-177 -179 0
-177 -180 0
-178 -179 0
-178 -180 0
-179 -180 0
176 177 178 179 180 0
-181 -182 0
-181 -183 0
-181 -184 0
-181 -185 0
-182 -183 0
-182 -184 0
-182 -185 0
-183 -184 0
-183 -185 0
-184 -185 0
181 182 183 184 185 0
-186 -187 0
-186 -188 0
-186 -189 0
-186 -190 0
-187 -188 0
-187 -189 0
-187 -190 0
-188 -189 0
-188 -190 0
-189 -190 0
186 187 188 189 190 0
-191 -192 0
-191 -193 0
-191 -194 0
-191 -195 0
-192 -193 0
-192 -194 0
-192 -195 0
-193 -194 0
-193 -195 0
-194 -195 0
191 192 193 194 195 0
-196 -197 0
-196 -198 0
-196 -199 0
-196 -200 0
-197 -198 0
-197 -199 0
-197 -200 0
-198 -199 0
-198 -200 0
-199 -200 0
196 197 198 199 200 0
-201 -202 0
-201 -203 0
-201 -204 0
-201 -205 0
-202 -203 0
-202 -204 0
-202 -205 0
-203 -204 0
-203 -205 0
-204 -205 0
201 202 203 204 205 0
-206 -207 0
-206 -208 0
-206 -209 0
-206 -210 0
-207 -208 0
-207 -209 0
-207 -210 0
-208 -209 0
-208 -210 0
-209 -210 0
206 207 208 209 210 0
-211 -212 0
-211 -213 0
-211 -214 0
-211 -215 0
-212 -213 0
-212 -214 0
-212 -215 0
-213 -214 0
-213 -215 0
-214 -215 0
211 212 213 214 215 0
-216 -217 0
-216 -218 0
-216 -219 0
-216 -220 0
-217 -218 0
-217 -219 0
-217 -220 0
-218 -219 0
-218 -220 0
-219 -220 0
216 217 218 219 220 0
-221 -222 0
-221 -223 0
-221 -224 0
-221 -225 0
-222 -223 0
-222 -224 0
-222 -225 0
-223 -224 0
-223 -225 0
-224 -225 0
221 222 223 224 225 0
-226 -227 0
-226 -228 0
-226 -229 0
-226 -230 0
-227 -228 0
-227 -229 0
-227 -230 0
-228 -229 0
-228 -230 0
-229 -230 0
226 227 228 229 230 0
-231 -232 0
-231 -233 0
-231 -234 0
-231 -235 0
-232 -233 0
-232 -234 0
-232 -235 0
-233 -234 0
-233 -235 0
-234 -235 0
231 232 233 234 235 0
-236 -237 0
-236 -238 0
-236 -239 0
-236 -240 0
-237 -238 0
-237 -239 0
-237 -240 0
-238 -239 0
-238 -240 0
-239 -240 0
236 237 238 239 240 0
-241 -242 0
-241 -243 0
-241 -244 0
-241 -245 0
-242 -243 0
-242 -244 0
-242 -245 0
-243 -244 0
-243 -245 0
-244 -245 0
241 242 243 244 245 0
-246 -247 0
-246 -248 0
-246 -249 0
-246 -250 0
-247 -248 0
-247 -249 0
-247 -250 0
-248 -249 0
-248 -250 0
-249 -250 0
246 247 248 249 250 0
-251 -252 0
-251 -253 0
-251 -254 0
-251 -255 0
-252 -253 0
-252 -254 0
-252 -255 0
-253 -254 0
-253 -255 0
-254 -255 0
251 252 253 254 255 0
-256 -257 0
-256 -258 0
-256 -259 0
-256 -260 0
-257 -258 0
-257 -259 0
-257 -260 0
-258 -259 0
-258 -260 0
-259 -260 0
256 257 258 259 260 0
-261 -262 0
-261 -263 0
-261 -264 0
-261 -265 0
-262 -263 0
-262 -264 0
-262 -265 0
-263 -264 0
-263 -265 0
-264 -265 0
261 262 263 264 265 0
-266 -267 0
-266 -268 0
-266 -269 0
-266 -270 0
-267 -268 0
-267 -269 0
-267 -270 0
-268 -269 0
-268 -270 0
-269 -270 0
266 267 268 269 270 0
-271 -272 0
-271 -273 0
-271 -274 0
-271 -275 0
-272 -273 0
-272 -274 0
-272 -275 0
-273 -274 0
-273 -275 0
-274 -275 0
271 272 273 274 275 0
-276 -277 0
-276 -278 0
-276 -279 0
-276 -280 0
-277 -278 0
-277 -279 0
-277 -280 0
-278 -279 0
-278 -280 0
-279 -280 0
276 277 278 279 280 0
-281 -282 0
-281 -283 0
-281 -284 0
-281 -285 0
-282 -283 0
-282 -284 0
-282 -285 0
-283 -284 0
-283 -285 0
-284 -285 0
281 282 283 284 285 0
-286 -287 0
-286 -288 0
-286 -289 0
-286 -290 0
-287 -288 0
-287 -289 0
-287 -290 0
-288 -289 0
-288 -290 0
-289 -290 0
286 287 288 289 290 0
-291 -292 0
-291 -293 0
-291 -294 0
-291 -295 0
-292 -293 0
-292 -294 0
-292 -295 0
-293 -294 0
-293 -295 0
-294 -295 0
291 292 293 294 295 0
-296 -297 0
-296 -298 0
-296 -299 0
-296 -300 0
-297 -298 0
-297 -299 0
-297 -300 0
-298 -299 0
-298 -300 0
-299 -300 0
296 297 298 299 300 0
-301 -302 0
-301 -303 0
-301 -304 0
-301 -305 0
-302 -303 0
-302 -304 0
-302 -305 0
-303 -304 0
-303 -305 0
-304 -305 0
301 302 303 304 305 0
-306 -307 0
-306 -308 0
-306 -309 0
-306 -310 0
-307 -308 0
-307 -309 0
-307 -310 0
-308 -309 0
-308 -310 0
-309 -310 0
306 307 308 309 310 0
-311 -312 0
-311 -313 0
-311 -314 0
-311 -315 0
-312 -313 0
-312 -314 0
-312 -315 0
-313 -314 0
-313 -315 0
-314 -315 0
311 312 313 314 315 0
-316 -317 0
-316 -318 0
-316 -319 0
-316 -320 0
-317 -318 0
-317 -319 0
-317 -320 0
-318 -319 0
-318 -320 0
-319 -320 0
316 317 318 319 320 0
-321 -322 0
-321 -323 0
-321 -324 0
-321 -325 0
-322 -323 0
-322 -324 0
-322 -325 0
-323 -324 0
-323 -325 0
-324 -325 0
321 322 323 324 325 0
-326 -327 0
-326 -328 0
-326 -329 0
-326 -330 0
-327 -328 0
-327 -329 0
-327 -330 0
-328 -329 0
-328 -330 0
-329 -330 0
326 327 328 329 330 0
-331 -332 0
-331 -333 0
-331 -334 0
-331 -335 0
-332 -333 0
-332 -334 0
-332 -335 0
-333 -334 0
-333 -335 0
-334 -335 0
331 332 333 334 335 0
-336 -337 0
-336 -338 0
-336 -339 0
-336 -340 0
-337 -338 0
-337 -339 0
-337 -340 0
-338 -339 0
-338 -340 0
-339 -340 0
336 337 338 339 340 0
-341 -342 0
-341 -343 0
-341 -344 0
-341 -345 0
-342 -343 0
-342 -344 0
-342 -345 0
-343 -344 0
-343 -345 0
-344 -345 0
341 342 343 344 345 0
-346 -347 0
-346 -348 0
-346 -349 0
-346 -350 0
-347 -348 0
-347 -349 0
-347 -350 0
-348 -349 0
-348 -350 0
-349 -350 0
346 347 348 349 350 0
-351 -352 0
-351 -353 0
-351 -354 0
-351 -355 0
-352 -353 0
-352 -354 0
-352 -355 0
-353 -354 0
-353 -355 0
-354 -355 0
351 352 353 354 355 0
-356 -357 0
-356 -358 0
-356 -359 0
-356 -360 0
-357 -358 0
-357 -359 0
-357 -360 0
-358 -359 0
-358 -360 0
-359 -360 0
356 357 358 359 360 0
-361 -362 0
-361 -363 0
-361 -364 0
-361 -365 0
-362 -363 0
-362 -364 0
-362 -365 0
-363 -364 0
-363 -365 0
-364 -365 0
361 362 363 364 365 0
-366 -367 0
-366 -368 0
-366 -369 0
-366 -370 0
-367 -368 0
-367 -369 0
-367 -370 0
-368 -369 0
-368 -370 0
-369 -370 0
366 367 368 369 370 0
-371 -372 0
-371 -373 0
-371 -374 0
-371 -375 0
-372 -373 0
-372 -374 0
-372 -375 0
-373 -374 0
-373 -375 0
-374 -375 0
371 372 373 374 375 0
-376 -377 0
-376 -378 0
-376 -379 0
-376 -380 0
-377 -378 0
-377 -379 0
-377 -380 0
-378 -379 0
-378 -380 0
-379 -380 0
376 377 378 379 380 0
-381 -382 0
-381 -383 0
-381 -384 0
-381 -385 0
-382 -383 0
-382 -384 0
-382 -385 0
-383 -384 0
-383 -385 0
-384 -385 0
381 382 383 384 385 0
-386 -387 0
-386 -388 0
-386 -389 0
-386 -390 0
-387 -388 0
-387 -389 0
-387 -390 0
-388 -389 0
-388 -390 0
-389 -390 0
386 387 388 389 390 0
-391 -392 0
-391 -393 0
-391 -394 0
-391 -395 0
-392 -393 0
-392 -394 0
-392 -395 0
-393 -394 0
-393 -395 0
-394 -395 0
391 392 393 394 395 0
-396 -397 0
-396 -398 0
-396 -399 0
-396 -400 0
-397 -398 0
-397 -399 0
-397 -400 0
-398 -399 0
-398 -400 0
-399 -400 0
396 397 398 399 400 0
-401 -402 0
-401 -403 0
-401 -404 0
-401 -405 0
-402 -403 0
-402 -404 0
-402 -405 0
-403 -404 0
-403 -405 0
-404 -405 0
401 402 403 404 405 0
-406 -407 0
-406 -408 0
-406 -409 0
-406 -410 0
-407 -408 0
-407 -409 0
-407 -410 0
-408 -409 0
-408 -410 0
-409 -410 0
406 407 408 409 410 0
-411 -412 0
-411 -413 0
-411 -414 0
-411 -415 0
-412 -413 0
-412 -414 0
-412 -415 0
-413 -414 0
-413 -415 0
-414 -415 0
411 412 413 414 415 0
-416 -417 0
-416 -418 0
-416 -419 0
-416 -420 0
-417 -418 0
-417 -419 0
-417 -420 0
-418 -419 0
-418 -420 0
-419 -420 0
416 417 418 419 420 0
-421 -422 0
-421 -423 0
-421 -424 0
-421 -425 0
-422 -423 0
-422 -424 0
-422 -425 0
-423 -424 0
-423 -425 0
-424 -425 0
421 422 423 424 425 0
-426 -427 0
-426 -428 0
-426 -429 0
-426 -430 0
-427 -428 0
-427 -429 0
-427 -430 0
-428 -429 0
-428 -430 0
-429 -430 0
426 427 428 429 430 0
-431 -432 0
-431 -433 0
-431 -434 0
-431 -435 0
-432 -433 0
-432 -434 0
-432 -435 0
-433 -434 0
-433 -435 0
-434 -435 0
431 432 433 434 435 0
-436 -437 0
-436 -438 0
-436 -439 0
-436 -440 0
-437 -438 0
-437 -439 0
-437 -440 0
-438 -439 0
-438 -440 0
-439 -440 0
436 437 438 439 440 0
-441 -442 0
-441 -443 0
-441 -444 0
-441 -445 0
-442 -443 0
-442 -444 0
-442 -445 0
-443 -444 0
-443 -445 0
-444 -445 0
441 442 443 444 445 0
-446 -447 0
-446 -448 0
-446 -449 0
-446 -450 0
-447 -448 0
-447 -449 0
-447 -450 0
-448 -449 0
-448 -450 0
-449 -450 0
446 447 448 449 450 0
-451 -452 0
-451 -453 0
-451 -454 0
-451 -455 0
-452 -453 0
-452 -454 0
-452 -455 0
-453 -454 0
-453 -455 0
-454 -455 0
451 452 453 454 455 0
-456 -457 0
-456 -458 0
-456 -459 0
-456 -460 0
-457 -458 0
-457 -459 0
-457 -460 0
-458 -459 0
-458 -460 0
-459 -460 0
456 457 458 459 460 0
-461 -462 0
-461 -463 0
-461 -464 0
-461 -465 0
-462 -463 0
-462 -464 0
-462 -465 0
-463 -464 0
-463 -465 0
-464 -465 0
461 462 463 464 465 0
-466 -467 0
-466 -468 0
-466 -469 0
-466 -470 0
-467 -468 0
-467 -469 0
-467 -470 0
-468 -469 0
-468 -470 0
-469 -470 0
466 467 468 469 470 0
-471 -472 0
-471 -473 0
-471 -474 0
-471 -475 0
-472 -473 0
-472 -474 0
-472 -475 0
-473 -474 0
-473 -475 0
-474 -475 0
471 472 473 474 475 0
-476 -477 0
-476 -478 0
-476 -479 0
-476 -480 0
-477 -478 0
-477 -479 0
-477 -480 0
-478 -479 0
-478 -480 0
-479 -480 0
476 477 478 479 480 0
-481 -482 0
-481 -483 0
-481 -484 0
-481 -485 0
-482 -483 0
-482 -484 0
-482 -485 0
-483 -484 0
-483 -485 0
-484 -485 0
481 482 483 484 485 0
-486 -487 0
-486 -488 0
-486 -489 0
-486 -490 0
-487 -488 0
-487 -489 0
-487 -490 0
-488 -489 0
-488 -490 0
-489 -490 0
486 487 488 489 490 0
-491 -492 0
-491 -493 0
-491 -494 0
-491 -495 0
-492 -493 0
-492 -494 0
-492 -495 0
-493 -494 0
-493 -495 0
-494 -495 0
491 492 493 494 495 0
-496 -497 0
-496 -498 0
-496 -499 0
-496 -500 0
-497 -498 0
-497 -499 0
-497 -500 0
-498 -499 0
-498 -500 0
-499 -500 0
496 497 498 499 500 0
-21 -26 0
-22 -27 0
-23 -28 0
-24 -29 0
-25 -30 0
-26 -41 0
-27 -42 0
-28 -43 0
-29 -44 0
-30 -45 0
-31 -36 0
-32 -37 0
-33 -38 0
-34 -39 0
-35 -40 0
-31 -41 0
-32 -42 0
-33 -43 0
-34 -44 0
-35 -45 0
-81 -91 0
-82 -92 0
-83 -93 0
-84 -94 0
-85 -95 0
-101 -111 0
-102 -112 0
-103 -113 0
-104 -114 0
-105 -115 0
-121 -131 0
-122 -132 0
-123 -133 0
-124 -134 0
-125 -135 0
-181 -191 0
-182 -192 0
-183 -193 0
-184 -194 0
-185 -195 0
-196 -211 0
-197 -212 0
-198 -213 0
-199 -214 0
-200 -215 0
-201 -206 0
-202 -207 0
-203 -208 0
-204 -209 0
-205 -210 0
-211 -221 0
-212 -222 0
-213 -223 0
-214 -224 0
-215 -225 0
-216 -226 0
-217 -227 0
-218 -228 0
-219 -229 0
-220 -230 0
-216 -231 0
-217 -232 0
-218 -233 0
-219 -234 0
-220 -235 0
-221 -226 0
-222 -227 0
-223 -228 0
-224 -229 0
-225 -230 0
-241 -256 0
-242 -257 0
-243 -258 0
-244 -259 0
-245 -260 0
-251 -271 0
-252 -272 0
-253 -273 0
-254 -274 0
-255 -275 0
-266 -286 0
-267 -287 0
-268 -288 0
-269 -289 0
-270 -290 0
-276 -286 0
-277 -287 0
-278 -288 0
-279 -289 0
-280 -290 0
-281 -286 0
-282 -287 0
-283 -288 0
-284 -289 0
-285 -290 0
-301 -321 0
-302 -322 0
-303 -323 0
-304 -324 0
-305 -325 0
-341 -346 0
-342 -347 0
-343 -348 0
-344 -349 0
-345 -350 0
-346 -356 0
-347 -357 0
-348 -358 0
-349 -359 0
-350 -360 0
-401 -416 0
-402 -417 0
-403 -418 0
-404 -419 0
-405 -420 0
-401 -421 0
-402 -422 0
-403 -423 0
-404 -424 0
-405 -425 0
-406 -421 0
-407 -422 0
-408 -423 0
-409 -424 0
-410 -425 0
-406 -426 0
-407 -427 0
-408 -428 0
-409 -429 0
-410 -430 0
-411 -426 0
-412 -427 0
-413 -428 0
-414 -429 0
-415 -430 0
-411 -431 0
-412 -432 0
-413 -433 0
-414 -434 0
-415 -435 0
-441 -456 0
-442 -457 0
-443 -458 0
-444 -459 0
-445 -460 0
-446 -461 0
-447 -462 0
-448 -463 0
-449 -464 0
-450 -465 0
-456 -461 0
-457 -462 0
-458 -463 0
-459 -464 0
-460 -465 0
-476 -481 0
-477 -482 0
-478 -483 0
-479 -484 0
-480 -485 0
-481 -486 0
-482 -487 0
-483 -488 0
-484 -489 0
-485 -490 0
-1 -486 0
-2 -487 0
-3 -488 0
-4 -489 0
-5 -490 0
-6 -496 0
-7 -497 0
-8 -498 0
-9 -499 0
-10 -500 0
-1 -51 0
-2 -52 0
-3 -53 0
-4 -54 0
-5 -55 0
-1 -131 0
-2 -132 0
-3 -133 0
-4 -134 0
-5 -135 0
-1 -166 0
-2 -167 0
-3 -168 0
-4 -169 0
-5 -170 0
-1 -236 0
-2 -237 0
-3 -238 0
-4 -239 0
-5 -240 0
-1 -316 0
-2 -317 0
-3 -318 0
-4 -319 0
-5 -320 0
-1 -376 0
-2 -377 0
-3 -378 0
-4 -379 0
-5 -380 0
-1 -396 0
-2 -397 0
-3 -398 0
-4 -399 0
-5 -400 0
-1 -406 0
-2 -407 0
-3 -408 0
-4 -409 0
-5 -410 0
-1 -466 0
-2 -467 0
-3 -468 0
-4 -469 0
-5 -470 0
-1 -471 0
-2 -472 0
-3 -473 0
-4 -474 0
-5 -475 0
-1 -476 0
-2 -477 0
-3 -478 0
-4 -479 0
-5 -480 0
-6 -41 0
-7 -42 0
-8 -43 0
-9 -44 0
-10 -45 0
-6 -71 0
-7 -72 0
-8 -73 0
-9 -74 0
-10 -75 0
-6 -116 0
-7 -117 0
-8 -118 0
-9 -119 0
-10 -120 0
-6 -136 0
-7 -137 0
-8 -138 0
-9 -139 0
-10 -140 0
-6 -156 0
-7 -157 0
-8 -158 0
-9 -159 0
-10 -160 0
-6 -231 0
-7 -232 0
-8 -233 0
-9 -234 0
-10 -235 0
-6 -236 0
-7 -237 0
-8 -238 0
-9 -239 0
-10 -240 0
-6 -346 0
-7 -347 0
-8 -348 0
-9 -349 0
-10 -350 0
-6 -406 0
-7 -407 0
-8 -408 0
-9 -409 0
-10 -410 0
-11 -81 0
-12 -82 0
-13 -83 0
-14 -84 0
-15 -85 0
-11 -186 0
-12 -187 0
-13 -188 0
-14 -189 0
-15 -190 0
-11 -206 0
-12 -207 0
-13 -208 0
-14 -209 0
-15 -210 0
-11 -386 0
-12 -387 0
-13 -388 0
-14 -389 0
-15 -390 0
-11 -391 0
-12 -392 0
-13 -393 0
-14 -394 0
-15 -395 0
-11 -406 0
-12 -407 0
-13 -408 0
-14 -409 0
-15 -410 0
-16 -66 0
-17 -67 0
-18 -68 0
-19 -69 0
-20 -70 0
-16 -81 0
-17 -82 0
-18 -83 0
-19 -84 0
-20 -85 0
-16 -136 0
-17 -137 0
-18 -138 0
-19 -139 0
-20 -140 0
-16 -186 0
-17 -187 0
-18 -188 0
-19 -189 0
-20 -190 0
-16 -316 0
-17 -317 0
-18 -318 0
-19 -319 0
-20 -320 0
-16 -371 0
-17 -372 0
-18 -373 0
-19 -374 0
-20 -375 0
-16 -386 0
-17 -387 0
-18 -388 0
-19 -389 0
-20 -390 0
-16 -431 0
-17 -432 0
-18 -433 0
-19 -434 0
-20 -435 0
-16 -451 0
-17 -452 0
-18 -453 0
-19 -454 0
-20 -455 0
-16 -466 0
-17 -467 0
-18 -468 0
-19 -469 0
-20 -470 0
-16 -491 0
-17 -492 0
-18 -493 0
-19 -494 0
-20 -495 0
-21 -91 0
-22 -92 0
-23 -93 0
-24 -94 0
-25 -95 0
-21 -181 0
-22 -182 0
-23 -183 0
-24 -184 0
-25 -185 0
-21 -206 0
-22 -207 0
-23 -208 0
-24 -209 0
-25 -210 0
-21 -326 0
-22 -327 0
-23 -328 0
-24 -329 0
-25 -330 0
-21 -336 0
-22 -337 0
-23 -338 0
-24 -339 0
-25 -340 0
-21 -416 0
-22 -417 0
-23 -418 0
-24 -419 0
-25 -420 0
-21 -441 0
-22 -442 0
-23 -443 0
-24 -444 0
-25 -445 0
-26 -61 0
-27 -62 0
-28 -63 0
-29 -64 0
-30 -65 0
-26 -261 0
-27 -262 0
-28 -263 0
-29 -264 0
-30 -265 0
-26 -396 0
-27 -397 0
-28 -398 0
-29 -399 0
-30 -400 0
-31 -101 0
-32 -102 0
-33 -103 0
-34 -104 0
-35 -105 0
-31 -111 0
-32 -112 0
-33 -113 0
-34 -114 0
-35 -115 0
-31 -136 0
-32 -137 0
-33 -138 0
-34 -139 0
-35 -140 0
-31 -156 0
-32 -157 0
-33 -158 0
-34 -159 0
-35 -160 0
-31 -256 0
-32 -257 0
-33 -258 0
-34 -259 0
-35 -260 0
-31 -276 0
-32 -277 0
-33 -278 0
-34 -279 0
-35 -280 0
-31 -306 0
-32 -307 0
-33 -308 0
-34 -309 0
-35 -310 0
-31 -361 0
-32 -362 0
-33 -363 0
-34 -364 0
-35 -365 0
-31 -451 0
-32 -452 0
-33 -453 0
-34 -454 0
-35 -455 0
-36 -76 0
-37 -77 0
-38 -78 0
-39 -79 0
-40 -80 0
-36 -131 0
-37 -132 0
-38 -133 0
-39 -134 0
-40 -135 0
-36 -146 0
-37 -147 0
-38 -148 0
-39 -149 0
-40 -150 0
-36 -166 0
-37 -167 0
-38 -168 0
-39 -169 0
-40 -170 0
-36 -196 0
-37 -197 0
-38 -198 0
-39 -199 0
-40 -200 0
-36 -241 0
-37 -242 0
-38 -243 0
-39 -244 0
-40 -245 0
-36 -256 0
-37 -257 0
-38 -258 0
-39 -259 0
-40 -260 0
-36 -336 0
-37 -337 0
-38 -338 0
-39 -339 0
-40 -340 0
-36 -371 0
-37 -372 0
-38 -373 0
-39 -374 0
-40 -375 0
-36 -426 0
-37 -427 0
-38 -428 0
-39 -429 0
-40 -430 0
-36 -466 0
-37 -467 0
-38 -468 0
-39 -469 0
-40 -470 0
-36 -471 0
-37 -472 0
-38 -473 0
-39 -474 0
-40 -475 0
-36 -481 0
-37 -482 0
-38 -483 0
-39 -484 0
-40 -485 0
-41 -216 0
-42 -217 0
-43 -218 0
-44 -219 0
-45 -220 0
-41 -246 0
-42 -247 0
-43 -248 0
-44 -249 0
-45 -250 0
-41 -266 0
-42 -267 0
-43 -268 0
-44 -269 0
-45 -270 0
-41 -381 0
-42 -382 0
-43 -383 0
-44 -384 0
-45 -385 0
-41 -391 0
-42 -392 0
-43 -393 0
-44 -394 0
-45 -395 0
-41 -461 0
-42 -462 0
-43 -463 0
-44 -464 0
-45 -465 0
-46 -71 0
-47 -72 0
-48 -73 0
-49 -74 0
-50 -75 0
-46 -81 0
-47 -82 0
-48 -83 0
-49 -84 0
-50 -85 0
-46 -116 0
-47 -117 0
-48 -118 0
-49 -119 0
-50 -120 0
-46 -126 0
-47 -127 0
-48 -128 0
-49 -129 0
-50 -130 0
-46 -181 0
-47 -182 0
-48 -183 0
-49 -184 0
-50 -185 0
-46 -186 0
-47 -187 0
-48 -188 0
-49 -189 0
-50 -190 0
-46 -201 0
-47 -202 0
-48 -203 0
-49 -204 0
-50 -205 0
-46 -401 0
-47 -402 0
-48 -403 0
-49 -404 0
-50 -405 0
-51 -121 0
-52 -122 0
-53 -123 0
-54 -124 0
-55 -125 0
-51 -146 0
-52 -147 0
-53 -148 0
-54 -149 0
-55 -150 0
-51 -161 0
-52 -162 0
-53 -163 0
-54 -164 0
-55 -165 0
-51 -211 0
-52 -212 0
-53 -213 0
-54 -214 0
-55 -215 0
-51 -331 0
-52 -332 0
-53 -333 0
-54 -334 0
-55 -335 0
-51 -426 0
-52 -427 0
-53 -428 0
-54 -429 0
-55 -430 0
-51 -441 0
-52 -442 0
-53 -443 0
-54 -444 0
-55 -445 0
-56 -91 0
-57 -92 0
-58 -93 0
-59 -94 0
-60 -95 0
-56 -111 0
-57 -112 0
-58 -113 0
-59 -114 0
-60 -115 0
-56 -191 0
-57 -192 0
-58 -193 0
-59 -194 0
-60 -195 0
-56 -196 0
-57 -197 0
-58 -198 0
-59 -199 0
-60 -200 0
-56 -306 0
-57 -307 0
-58 -308 0
-59 -309 0
-60 -310 0
-56 -356 0
-57 -357 0
-58 -358 0
-59 -359 0
-60 -360 0
-56 -371 0
-57 -372 0
-58 -373 0
-59 -374 0
-60 -375 0
-56 -441 0
-57 -442 0
-58 -443 0
-59 -444 0
-60 -445 0
-61 -206 0
-62 -207 0
-63 -208 0
-64 -209 0
-65 -210 0
-61 -441 0
-62 -442 0
-63 -443 0
-64 -444 0
-65 -445 0
-61 -471 0
-62 -472 0
-63 -473 0
-64 -474 0
-65 -475 0
-61 -491 0
-62 -492 0
-63 -493 0
-64 -494 0
-65 -495 0
-66 -256 0
-67 -257 0
-68 -258 0
-69 -259 0
-70 -260 0
-66 -311 0
-67 -312 0
-68 -313 0
-69 -314 0
-70 -315 0
-66 -341 0
-67 -342 0
-68 -343 0
-69 -344 0
-70 -345 0
-71 -171 0
-72 -172 0
-73 -173 0
-74 -174 0
-75 -175 0
-71 -206 0
-72 -207 0
-73 -208 0
-74 -209 0
-75 -210 0
-71 -296 0
-72 -297 0
-73 -298 0
-74 -299 0
-75 -300 0
-71 -401 0
-72 -402 0
-73 -403 0
-74 -404 0
-75 -405 0
-71 -406 0
-72 -407 0
-73 -408 0
-74 -409 0
-75 -410 0
-71 -496 0
-72 -497 0
-73 -498 0
-74 -499 0
-75 -500 0
-76 -101 0
-77 -102 0
-78 -103 0
-79 -104 0
-80 -105 0
-76 -151 0
-77 -152 0
-78 -153 0
-79 -154 0
-80 -155 0
-76 -176 0
-77 -177 0
-78 -178 0
-79 -179 0
-80 -180 0
-76 -206 0
-77 -207 0
-78 -208 0
-79 -209 0
-80 -210 0
-76 -216 0
-77 -217 0
-78 -218 0
-79 -219 0
-80 -220 0
-76 -221 0
-77 -222 0
-78 -223 0
-79 -224 0
-80 -225 0
-76 -231 0
-77 -232 0
-78 -233 0
-79 -234 0
-80 -235 0
-76 -286 0
-77 -287 0
-78 -288 0
-79 -289 0
-80 -290 0
-76 -376 0
-77 -377 0
-78 -378 0
-79 -379 0
-80 -380 0
-76 -391 0
-77 -392 0
-78 -393 0
-79 -394 0
-80 -395 0
-76 -401 0
-77 -402 0
-78 -403 0
-79 -404 0
-80 -405 0
-76 -436 0
-77 -437 0
-78 -438 0
-79 -439 0
-80 -440 0
-76 -461 0
-77 -462 0
-78 -463 0
-79 -464 0
-80 -465 0
-76 -496 0
-77 -497 0
-78 -498 0
-79 -499 0
-80 -500 0
-81 -136 0
-82 -137 0
-83 -138 0
-84 -139 0
-85 -140 0
-81 -191 0
-82 -192 0
-83 -193 0
-84 -194 0
-85 -195 0
-81 -251 0
-82 -252 0
-83 -253 0
-84 -254 0
-85 -255 0
-81 -301 0
-82 -302 0
-83 -303 0
-84 -304 0
-85 -305 0
-81 -356 0
-82 -357 0
-83 -358 0
-84 -359 0
-85 -360 0
-81 -396 0
-82 -397 0
-83 -398 0
-84 -399 0
-85 -400 0
-81 -471 0
-82 -472 0
-83 -473 0
-84 -474 0
-85 -475 0
-86 -206 0
-87 -207 0
-88 -208 0
-89 -209 0
-90 -210 0
-86 -221 0
-87 -222 0
-88 -223 0
-89 -224 0
-90 -225 0
-86 -326 0
-87 -327 0
-88 -328 0
-89 -329 0
-90 -330 0
-86 -336 0
-87 -337 0
-88 -338 0
-89 -339 0
-90 -340 0
-86 -401 0
-87 -402 0
-88 -403 0
-89 -404 0
-90 -405 0
-86 -446 0
-87 -447 0
-88 -448 0
-89 -449 0
-90 -450 0
-86 -456 0
-87 -457 0
-88 -458 0
-89 -459 0
-90 -460 0
-86 -466 0
-87 -467 0
-88 -468 0
-89 -469 0
-90 -470 0
-91 -211 0
-92 -212 0
-93 -213 0
-94 -214 0
-95 -215 0
-91 -256 0
-92 -257 0
-93 -258 0
-94 -259 0
-95 -260 0
-91 -316 0
-92 -317 0
-93 -318 0
-94 -319 0
-95 -320 0
-91 -406 0
-92 -407 0
-93 -408 0
-94 -409 0
-95 -410 0
-91 -476 0
-92 -477 0
-93 -478 0
-94 -479 0
-95 -480 0
-96 -166 0
-97 -167 0
-98 -168 0
-99 -169 0
-100 -170 0
-96 -171 0
-97 -172 0
-98 -173 0
-99 -174 0
-100 -175 0
-96 -176 0
-97 -177 0
-98 -178 0
-99 -179 0
-100 -180 0
-96 -206 0
-97 -207 0
-98 -208 0
-99 -209 0
-100 -210 0
-96 -311 0
-97 -312 0
-98 -313 0
-99 -314 0
-100 -315 0
-96 -421 0
-97 -422 0
-98 -423 0
-99 -424 0
-100 -425 0
-101 -136 0
-102 -137 0
-103 -138 0
-104 -139 0
-105 -140 0
-101 -151 0
-102 -152 0
-103 -153 0
-104 -154 0
-105 -155 0
-101 -286 0
-102 -287 0
-103 -288 0
-104 -289 0
-105 -290 0
-101 -371 0
-102 -372 0
-103 -373 0
-104 -374 0
-105 -375 0
-101 -481 0
-102 -482 0
-103 -483 0
-104 -484 0
-105 -485 0
-106 -231 0
-107 -232 0
-108 -233 0
-109 -234 0
-110 -235 0
-106 -296 0
-107 -297 0
-108 -298 0
-109 -299 0
-110 -300 0
-106 -301 0
-107 -302 0
-108 -303 0
-109 -304 0
-110 -305 0
-106 -306 0
-107 -307 0
-108 -308 0
-109 -309 0
-110 -310 0
-106 -466 0
-107 -467 0
-108 -468 0
-109 -469 0
-110 -470 0
-111 -206 0
-112 -207 0
-113 -208 0
-114 -209 0
-115 -210 0
-111 -266 0
-112 -267 0
-113 -268 0
-114 -269 0
-115 -270 0
-111 -286 0
-112 -287 0
-113 -288 0
-114 -289 0
-115 -290 0
-111 -336 0
-112 -337 0
-113 -338 0
-114 -339 0
-115 -340 0
-111 -356 0
-112 -357 0
-113 -358 0
-114 -359 0
-115 -360 0
-111 -366 0
-112 -367 0
-113 -368 0
-114 -369 0
-115 -370 0
-111 -386 0
-112 -387 0
-113 -388 0
-114 -389 0
-115 -390 0
-111 -461 0
-112 -462 0
-113 -463 0
-114 -464 0
-115 -465 0
-111 -481 0
-112 -482 0
-113 -483 0
-114 -484 0
-115 -485 0
-116 -146 0
-117 -147 0
-118 -148 0
-119 -149 0
-120 -150 0
-116 -266 0
-117 -267 0
-118 -268 0
-119 -269 0
-120 -270 0
-116 -351 0
-117 -352 0
-118 -353 0
-119 -354 0
-120 -355 0
-116 -361 0
-117 -362 0
-118 -363 0
-119 -364 0
-120 -365 0
-116 -416 0
-117 -417 0
-118 -418 0
-119 -419 0
-120 -420 0
-116 -421 0
-117 -422 0
-118 -423 0
-119 -424 0
-120 -425 0
-116 -426 0
-117 -427 0
-118 -428 0
-119 -429 0
-120 -430 0
-121 -156 0
-122 -157 0
-123 -158 0
-124 -159 0
-125 -160 0
-121 -166 0
-122 -167 0
-123 -168 0
-124 -169 0
-125 -170 0
-121 -196 0
-122 -197 0
-123 -198 0
-124 -199 0
-125 -200 0
-121 -221 0
-122 -222 0
-123 -223 0
-124 -224 0
-125 -225 0
-121 -311 0
-122 -312 0
-123 -313 0
-124 -314 0
-125 -315 0
-121 -326 0
-122 -327 0
-123 -328 0
-124 -329 0
-125 -330 0
-121 -336 0
-122 -337 0
-123 -338 0
-124 -339 0
-125 -340 0
-126 -381 0
-127 -382 0
-128 -383 0
-129 -384 0
-130 -385 0
-126 -471 0
-127 -472 0
-128 -473 0
-129 -474 0
-130 -475 0
-131 -376 0
-132 -377 0
-133 -378 0
-134 -379 0
-135 -380 0
-131 -406 0
-132 -407 0
-133 -408 0
-134 -409 0
-135 -410 0
-136 -171 0
-137 -172 0
-138 -173 0
-139 -174 0
-140 -175 0
-136 -211 0
-137 -212 0
-138 -213 0
-139 -214 0
-140 -215 0
-136 -356 0
-137 -357 0
-138 -358 0
-139 -359 0
-140 -360 0
-136 -481 0
-137 -482 0
-138 -483 0
-139 -484 0
-140 -485 0
-141 -226 0
-142 -227 0
-143 -228 0
-144 -229 0
-145 -230 0
-141 -231 0
-142 -232 0
-143 -233 0
-144 -234 0
-145 -235 0
-141 -321 0
-142 -322 0
-143 -323 0
-144 -324 0
-145 -325 0
-141 -326 0
-142 -327 0
-143 -328 0
-144 -329 0
-145 -330 0
-141 -431 0
-142 -432 0
-143 -433 0
-144 -434 0
-145 -435 0
-141 -446 0
-142 -447 0
-143 -448 0
-144 -449 0
-145 -450 0
-146 -356 0
-147 -357 0
-148 -358 0
-149 -359 0
-150 -360 0
-146 -381 0
-147 -382 0
-148 -383 0
-149 -384 0
-150 -385 0
-146 -486 0
-147 -487 0
-148 -488 0
-149 -489 0
-150 -490 0
-151 -206 0
-152 -207 0
-153 -208 0
-154 -209 0
-155 -210 0
-151 -271 0
-152 -272 0
-153 -273 0
-154 -274 0
-155 -275 0
-151 -471 0
-152 -472 0
-153 -473 0
-154 -474 0
-155 -475 0
-151 -486 0
-152 -487 0
-153 -488 0
-154 -489 0
-155 -490 0
-156 -196 0
-157 -197 0
-158 -198 0
-159 -199 0
-160 -200 0
-156 -231 0
-157 -232 0
-158 -233 0
-159 -234 0
-160 -235 0
-156 -241 0
-157 -242 0
-158 -243 0
-159 -244 0
-160 -245 0
-156 -266 0
-157 -267 0
-158 -268 0
-159 -269 0
-160 -270 0
-156 -296 0
-157 -297 0
-158 -298 0
-159 -299 0
-160 -300 0
-156 -301 0
-157 -302 0
-158 -303 0
-159 -304 0
-160 -305 0
-156 -316 0
-157 -317 0
-158 -318 0
-159 -319 0
-160 -320 0
-156 -431 0
-157 -432 0
-158 -433 0
-159 -434 0
-160 -435 0
-156 -491 0
-157 -492 0
-158 -493 0
-159 -494 0
-160 -495 0
-161 -236 0
-162 -237 0
-163 -238 0
-164 -239 0
-165 -240 0
-161 -461 0
-162 -462 0
-163 -463 0
-164 -464 0
-165 -465 0
-166 -231 0
-167 -232 0
-168 -233 0
-169 -234 0
-170 -235 0
-166 -391 0
-167 -392 0
-168 -393 0
-169 -394 0
-170 -395 0
-166 -436 0
-167 -437 0
-168 -438 0
-169 -439 0
-170 -440 0
-166 -446 0
-167 -447 0
-168 -448 0
-169 -449 0
-170 -450 0
-166 -476 0
-167 -477 0
-168 -478 0
-169 -479 0
-170 -480 0
-171 -206 0
-172 -207 0
-173 -208 0
-174 -209 0
-175 -210 0
-171 -266 0
-172 -267 0
-173 -268 0
-174 -269 0
-175 -270 0
-171 -446 0
-172 -447 0
-173 -448 0
-174 -449 0
-175 -450 0
-176 -431 0
-177 -432 0
-178 -433 0
-179 -434 0
-180 -435 0
-181 -316 0
-182 -317 0
-183 -318 0
-184 -319 0
-185 -320 0
-181 -351 0
-182 -352 0
-183 -353 0
-184 -354 0
-185 -355 0
-181 -361 0
-182 -362 0
-183 -363 0
-184 -364 0
-185 -365 0
-181 -431 0
-182 -432 0
-183 -433 0
-184 -434 0
-185 -435 0
-181 -466 0
-182 -467 0
-183 -468 0
-184 -469 0
-185 -470 0
-181 -491 0
-182 -492 0
-183 -493 0
-184 -494 0
-185 -495 0
-181 -496 0
-182 -497 0
-183 -498 0
-184 -499 0
-185 -500 0
-186 -236 0
-187 -237 0
-188 -238 0
-189 -239 0
-190 -240 0
-186 -266 0
-187 -267 0
-188 -268 0
-189 -269 0
-190 -270 0
-186 -471 0
-187 -472 0
-188 -473 0
-189 -474 0
-190 -475 0
-191 -216 0
-192 -217 0
-193 -218 0
-194 -219 0
-195 -220 0
-191 -261 0
-192 -262 0
-193 -263 0
-194 -264 0
-195 -265 0
-191 -291 0
-192 -292 0
-193 -293 0
-194 -294 0
-195 -295 0
-191 -306 0
-192 -307 0
-193 -308 0
-194 -309 0
-195 -310 0
-191 -411 0
-192 -412 0
-193 -413 0
-194 -414 0
-195 -415 0
-196 -376 0
-197 -377 0
-198 -378 0
-199 -379 0
-200 -380 0
-196 -471 0
-197 -472 0
-198 -473 0
-199 -474 0
-200 -475 0
-201 -336 0
-202 -337 0
-203 -338 0
-204 -339 0
-205 -340 0
-201 -346 0
-202 -347 0
-203 -348 0
-204 -349 0
-205 -350 0
-201 -361 0
-202 -362 0
-203 -363 0
-204 -364 0
-205 -365 0
-201 -431 0
-202 -432 0
-203 -433 0
-204 -434 0
-205 -435 0
-201 -486 0
-202 -487 0
-203 -488 0
-204 -489 0
-205 -490 0
-206 -276 0
-207 -277 0
-208 -278 0
-209 -279 0
-210 -280 0
-206 -286 0
-207 -287 0
-208 -288 0
-209 -289 0
-210 -290 0
-206 -296 0
-207 -297 0
-208 -298 0
-209 -299 0
-210 -300 0
-206 -321 0
-207 -322 0
-208 -323 0
-209 -324 0
-210 -325 0
-206 -386 0
-207 -387 0
-208 -388 0
-209 -389 0
-210 -390 0
-206 -431 0
-207 -432 0
-208 -433 0
-209 -434 0
-210 -435 0
-206 -436 0
-207 -437 0
-208 -438 0
-209 -439 0
-210 -440 0
-206 -446 0
-207 -447 0
-208 -448 0
-209 -449 0
-210 -450 0
-211 -251 0
-212 -252 0
-213 -253 0
-214 -254 0
-215 -255 0
-211 -346 0
-212 -347 0
-213 -348 0
-214 -349 0
-215 -350 0
-211 -421 0
-212 -422 0
-213 -423 0
-214 -424 0
-215 -425 0
-211 -476 0
-212 -477 0
-213 -478 0
-214 -479 0
-215 -480 0
-211 -481 0
-212 -482 0
-213 -483 0
-214 -484 0
-215 -485 0
-216 -396 0
-217 -397 0
-218 -398 0
-219 -399 0
-220 -400 0
-216 -426 0
-217 -427 0
-218 -428 0
-219 -429 0
-220 -430 0
-216 -436 0
-217 -437 0
-218 -438 0
-219 -439 0
-220 -440 0
-221 -266 0
-222 -267 0
-223 -268 0
-224 -269 0
-225 -270 0
-221 -286 0
-222 -287 0
-223 -288 0
-224 -289 0
-225 -290 0
-221 -346 0
-222 -347 0
-223 -348 0
-224 -349 0
-225 -350 0
-221 -356 0
-222 -357 0
-223 -358 0
-224 -359 0
-225 -360 0
-221 -426 0
-222 -427 0
-223 -428 0
-224 -429 0
-225 -430 0
-221 -456 0
-222 -457 0
-223 -458 0
-224 -459 0
-225 -460 0
-226 -251 0
-227 -252 0
-228 -253 0
-229 -254 0
-230 -255 0
-226 -311 0
-227 -312 0
-228 -313 0
-229 -314 0
-230 -315 0
-226 -351 0
-227 -352 0
-228 -353 0
-229 -354 0
-230 -355 0
-226 -361 0
-227 -362 0
-228 -363 0
-229 -364 0
-230 -365 0
-226 -391 0
-227 -392 0
-228 -393 0
-229 -394 0
-230 -395 0
-226 -406 0
-227 -407 0
-228 -408 0
-229 -409 0
-230 -410 0
-226 -411 0
-227 -412 0
-228 -413 0
-229 -414 0
-230 -415 0
-231 -371 0
-232 -372 0
-233 -373 0
-234 -374 0
-235 -375 0
-231 -391 0
-232 -392 0
-233 -393 0
-234 -394 0
-235 -395 0
-231 -431 0
-232 -432 0
-233 -433 0
-234 -434 0
-235 -435 0
-231 -436 0
-232 -437 0
-233 -438 0
-234 -439 0
-235 -440 0
-231 -481 0
-232 -482 0
-233 -483 0
-234 -484 0
-235 -485 0
-236 -281 0
-237 -282 0
-238 -283 0
-239 -284 0
-240 -285 0
-236 -396 0
-237 -397 0
-238 -398 0
-239 -399 0
-240 -400 0
-236 -401 0
-237 -402 0
-238 -403 0
-239 -404 0
-240 -405 0
-236 -446 0
-237 -447 0
-238 -448 0
-239 -449 0
-240 -450 0
-241 -421 0
-242 -422 0
-243 -423 0
-244 -424 0
-245 -425 0
-241 -436 0
-242 -437 0
-243 -438 0
-244 -439 0
-245 -440 0
-246 -316 0
-247 -317 0
-248 -318 0
-249 -319 0
-250 -320 0
-246 -391 0
-247 -392 0
-248 -393 0
-249 -394 0
-250 -395 0
-246 -456 0
-247 -457 0
-248 -458 0
-249 -459 0
-250 -460 0
-246 -491 0
-247 -492 0
-248 -493 0
-249 -494 0
-250 -495 0
-251 -296 0
-252 -297 0
-253 -298 0
-254 -299 0
-255 -300 0
-251 -301 0
-252 -302 0
-253 -303 0
-254 -304 0
-255 -305 0
-251 -326 0
-252 -327 0
-253 -328 0
-254 -329 0
-255 -330 0
-251 -346 0
-252 -347 0
-253 -348 0
-254 -349 0
-255 -350 0
-251 -451 0
-252 -452 0
-253 -453 0
-254 -454 0
-255 -455 0
-251 -456 0
-252 -457 0
-253 -458 0
-254 -459 0
-255 -460 0
-256 -306 0
-257 -307 0
-258 -308 0
-259 -309 0
-260 -310 0
-256 -361 0
-257 -362 0
-258 -363 0
-259 -364 0
-260 -365 0
-256 -426 0
-257 -427 0
-258 -428 0
-259 -429 0
-260 -430 0
-256 -481 0
-257 -482 0
-258 -483 0
-259 -484 0
-260 -485 0
-256 -486 0
-257 -487 0
-258 -488 0
-259 -489 0
-260 -490 0
-261 -291 0
-262 -292 0
-263 -293 0
-264 -294 0
-265 -295 0
-261 -471 0
-262 -472 0
-263 -473 0
-264 -474 0
-265 -475 0
-266 -316 0
-267 -317 0
-268 -318 0
-269 -319 0
-270 -320 0
-266 -321 0
-267 -322 0
-268 -323 0
-269 -324 0
-270 -325 0
-266 -351 0
-267 -352 0
-268 -353 0
-269 -354 0
-270 -355 0
-266 -366 0
-267 -367 0
-268 -368 0
-269 -369 0
-270 -370 0
-266 -396 0
-267 -397 0
-268 -398 0
-269 -399 0
-270 -400 0
-266 -401 0
-267 -402 0
-268 -403 0
-269 -404 0
-270 -405 0
-271 -436 0
-272 -437 0
-273 -438 0
-274 -439 0
-275 -440 0
-276 -381 0
-277 -382 0
-278 -383 0
-279 -384 0
-280 -385 0
-276 -471 0
-277 -472 0
-278 -473 0
-279 -474 0
-280 -475 0
-281 -336 0
-282 -337 0
-283 -338 0
-284 -339 0
-285 -340 0
-281 -371 0
-282 -372 0
-283 -373 0
-284 -374 0
-285 -375 0
-281 -451 0
-282 -452 0
-283 -453 0
-284 -454 0
-285 -455 0
-281 -496 0
-282 -497 0
-283 -498 0
-284 -499 0
-285 -500 0
-286 -376 0
-287 -377 0
-288 -378 0
-289 -379 0
-290 -380 0
-286 -411 0
-287 -412 0
-288 -413 0
-289 -414 0
-290 -415 0
-286 -456 0
-287 -457 0
-288 -458 0
-289 -459 0
-290 -460 0
-291 -401 0
-292 -402 0
-293 -403 0
-294 -404 0
-295 -405 0
-296 -336 0
-297 -337 0
-298 -338 0
-299 -339 0
-300 -340 0
-296 -466 0
-297 -467 0
-298 -468 0
-299 -469 0
-300 -470 0
-301 -336 0
-302 -337 0
-303 -338 0
-304 -339 0
-305 -340 0
-301 -396 0
-302 -397 0
-303 -398 0
-304 -399 0
-305 -400 0
-301 -401 0
-302 -402 0
-303 -403 0
-304 -404 0
-305 -405 0
-301 -426 0
-302 -427 0
-303 -428 0
-304 -429 0
-305 -430 0
-301 -496 0
-302 -497 0
-303 -498 0
-304 -499 0
-305 -500 0
-306 -356 0
-307 -357 0
-308 -358 0
-309 -359 0
-310 -360 0
-306 -376 0
-307 -377 0
-308 -378 0
-309 -379 0
-310 -380 0
-306 -466 0
-307 -467 0
-308 -468 0
-309 -469 0
-310 -470 0
-311 -336 0
-312 -337 0
-313 -338 0
-314 -339 0
-315 -340 0
-311 -421 0
-312 -422 0
-313 -423 0
-314 -424 0
-315 -425 0
-321 -441 0
-322 -442 0
-323 -443 0
-324 -444 0
-325 -445 0
-321 -476 0
-322 -477 0
-323 -478 0
-324 -479 0
-325 -480 0
-326 -376 0
-327 -377 0
-328 -378 0
-329 -379 0
-330 -380 0
-326 -381 0
-327 -382 0
-328 -383 0
-329 -384 0
-330 -385 0
-326 -396 0
-327 -397 0
-328 -398 0
-329 -399 0
-330 -400 0
-326 -421 0
-327 -422 0
-328 -423 0
-329 -424 0
-330 -425 0
-326 -491 0
-327 -492 0
-328 -493 0
-329 -494 0
-330 -495 0
-336 -421 0
-337 -422 0
-338 -423 0
-339 -424 0
-340 -425 0
-336 -456 0
-337 -457 0
-338 -458 0
-339 -459 0
-340 -460 0
-336 -496 0
-337 -497 0
-338 -498 0
-339 -499 0
-340 -500 0
-341 -376 0
-342 -377 0
-343 -378 0
-344 -379 0
-345 -380 0
-341 -481 0
-342 -482 0
-343 -483 0
-344 -484 0
-345 -485 0
-346 -431 0
-347 -432 0
-348 -433 0
-349 -434 0
-350 -435 0
-346 -456 0
-347 -457 0
-348 -458 0
-349 -459 0
-350 -460 0
-346 -476 0
-347 -477 0
-348 -478 0
-349 -479 0
-350 -480 0
-356 -391 0
-357 -392 0
-358 -393 0
-359 -394 0
-360 -395 0
-356 -446 0
-357 -447 0
-358 -448 0
-359 -449 0
-360 -450 0
-356 -461 0
-357 -462 0
-358 -463 0
-359 -464 0
-360 -465 0
-361 -496 0
-362 -497 0
-363 -498 0
-364 -499 0
-365 -500 0
-366 -461 0
-367 -462 0
-368 -463 0
-369 -464 0
-370 -465 0
-371 -421 0
-372 -422 0
-373 -423 0
-374 -424 0
-375 -425 0
-371 -476 0
-372 -477 0
-373 -478 0
-374 -479 0
-375 -480 0
-376 -441 0
-377 -442 0
-378 -443 0
-379 -444 0
-380 -445 0
-376 -486 0
-377 -487 0
-378 -488 0
-379 -489 0
-380 -490 0
-381 -421 0
-382 -422 0
-383 -423 0
-384 -424 0
-385 -425 0
-381 -471 0
-382 -472 0
-383 -473 0
-384 -474 0
-385 -475 0
-381 -496 0
-382 -497 0
-383 -498 0
-384 -499 0
-385 -500 0
-386 -466 0
-387 -467 0
-388 -468 0
-389 -469 0
-390 -470 0
-416 -456 0
-417 -457 0
-418 -458 0
-419 -459 0
-420 -460 0
-431 -466 0
-432 -467 0
-433 -468 0
-434 -469 0
-435 -470 0
-431 -486 0
-432 -487 0
-433 -488 0
-434 -489 0
-435 -490 0
-446 -471 0
-447 -472 0
-448 -473 0
-449 -474 0
-450 -475 0
